(declare-fun temp477_1 () (_ BitVec 64))
(declare-fun var68976 () (_ BitVec 64))
(declare-fun temp477_2 () (_ BitVec 64))
(declare-fun temp477_3 () (_ BitVec 64))
(declare-fun temp477_4 () (_ BitVec 64))
(declare-fun ARGNAME_w_ih_NAMEEND_DIMSIZE
             ()
             (Array (_ BitVec 64) (_ BitVec 64)))
(declare-fun temp477_5 () (_ BitVec 64))
(declare-fun temp477_6 () (_ BitVec 64))
(declare-fun temp477_7 () (_ BitVec 64))
(declare-fun temp477_8 () (_ BitVec 64))
(declare-fun temp477_9 () (_ BitVec 64))
(declare-fun temp477_10 () (_ BitVec 64))
(declare-fun temp477_11 () (_ BitVec 64))
(declare-fun temp477_12 () (_ BitVec 64))
(declare-fun temp477_13 () (_ BitVec 64))
(declare-fun temp477_14 () (_ BitVec 64))
(declare-fun temp477_15 () (_ BitVec 64))
(declare-fun temp477_16 () (_ BitVec 64))
(declare-fun temp477_17 () (_ BitVec 64))
(declare-fun temp477_18 () (_ BitVec 64))
(declare-fun temp477_19 () (_ BitVec 64))
(declare-fun temp477_20 () (_ BitVec 64))
(declare-fun temp477_21 () (_ BitVec 64))
(declare-fun temp477_22 () (_ BitVec 64))
(declare-fun var77378 () (_ BitVec 64))
(declare-fun temp477_23 () (_ BitVec 64))
(declare-fun temp477_24 () (_ BitVec 64))
(declare-fun temp477_25 () (_ BitVec 64))
(declare-fun ARGNAME_input_NAMEEND_DIMSIZE
             ()
             (Array (_ BitVec 64) (_ BitVec 64)))
(declare-fun temp477_26 () (_ BitVec 64))
(declare-fun temp477_27 () (_ BitVec 64))
(declare-fun temp477_28 () (_ BitVec 64))
(declare-fun temp477_29 () (_ BitVec 64))
(declare-fun temp477_30 () (_ BitVec 64))
(declare-fun temp477_31 () (_ BitVec 64))
(declare-fun temp477_32 () (_ BitVec 64))
(declare-fun temp477_33 () (_ BitVec 64))
(declare-fun temp477_34 () (_ BitVec 64))
(declare-fun temp477_35 () (_ BitVec 64))
(declare-fun temp477_36 () (_ BitVec 64))
(declare-fun temp477_37 () (_ BitVec 64))
(declare-fun temp477_38 () (_ BitVec 64))
(declare-fun temp477_39 () (_ BitVec 64))
(declare-fun temp477_40 () (_ BitVec 64))
(declare-fun temp477_41 () (_ BitVec 64))
(declare-fun temp477_42 () (_ BitVec 64))
(declare-fun temp477_43 () (_ BitVec 64))
(declare-fun temp477_44 () (_ BitVec 64))
(declare-fun temp477_45 () (_ BitVec 64))
(declare-fun var404256 () (_ BitVec 64))
(declare-fun k!0 () Bool)
(declare-fun ARGNAME_w_ih_NAMEEND_DIM () (_ BitVec 64))
(declare-fun k!1 () (_ BitVec 64))
(declare-fun k!2 () (_ BitVec 64))
(declare-fun k!3 () Bool)
(declare-fun k!4 () Bool)
(declare-fun ARGNAME_input_NAMEEND_DIM () (_ BitVec 64))
(declare-fun temp477_46 () (_ BitVec 64))
(declare-fun temp477_47 () (_ BitVec 64))
(declare-fun temp477_48 () (_ BitVec 64))
(declare-fun ARGNAME_w_hh_NAMEEND_DIMSIZE
             ()
             (Array (_ BitVec 64) (_ BitVec 64)))
(declare-fun temp477_49 () (_ BitVec 64))
(declare-fun temp477_50 () (_ BitVec 64))
(declare-fun temp477_51 () (_ BitVec 64))
(declare-fun temp477_52 () (_ BitVec 64))
(declare-fun temp477_53 () (_ BitVec 64))
(declare-fun temp477_54 () (_ BitVec 64))
(declare-fun temp477_55 () (_ BitVec 64))
(declare-fun temp477_56 () (_ BitVec 64))
(declare-fun temp477_57 () (_ BitVec 64))
(declare-fun temp477_58 () (_ BitVec 64))
(declare-fun temp477_59 () (_ BitVec 64))
(declare-fun temp477_60 () (_ BitVec 64))
(declare-fun temp477_61 () (_ BitVec 64))
(declare-fun temp477_62 () (_ BitVec 64))
(declare-fun temp477_63 () (_ BitVec 64))
(declare-fun temp477_64 () (_ BitVec 64))
(declare-fun temp477_65 () (_ BitVec 64))
(declare-fun ARGNAME_w_hh_NAMEEND_DIM () (_ BitVec 64))
(declare-fun temp477_66 () (_ BitVec 64))
(declare-fun temp477_67 () (_ BitVec 64))
(declare-fun var77383 () (_ BitVec 64))
(declare-fun temp477_68 () (_ BitVec 64))
(declare-fun temp477_69 () (_ BitVec 64))
(declare-fun temp477_70 () (_ BitVec 64))
(declare-fun temp477_71 () (_ BitVec 64))
(declare-fun temp477_72 () (_ BitVec 64))
(declare-fun ARGNAME_hx_NAMEEND_DIMSIZE () (Array (_ BitVec 64) (_ BitVec 64)))
(declare-fun temp477_73 () (_ BitVec 64))
(declare-fun temp477_74 () (_ BitVec 64))
(declare-fun temp477_75 () (_ BitVec 64))
(declare-fun temp477_76 () (_ BitVec 64))
(declare-fun temp477_77 () (_ BitVec 64))
(declare-fun temp477_78 () (_ BitVec 64))
(declare-fun temp477_79 () (_ BitVec 64))
(declare-fun temp477_80 () (_ BitVec 64))
(declare-fun temp477_81 () (_ BitVec 64))
(declare-fun temp477_82 () (_ BitVec 64))
(declare-fun temp477_83 () (_ BitVec 64))
(declare-fun temp477_84 () (_ BitVec 64))
(declare-fun temp477_85 () (_ BitVec 64))
(declare-fun temp477_86 () (_ BitVec 64))
(declare-fun temp477_87 () (_ BitVec 64))
(declare-fun temp477_88 () (_ BitVec 64))
(declare-fun temp477_89 () (_ BitVec 64))
(declare-fun temp477_90 () (_ BitVec 64))
(declare-fun temp477_91 () (_ BitVec 64))
(declare-fun ARGNAME_hx_NAMEEND_DIM () (_ BitVec 64))
(declare-fun var666568 () (_ BitVec 64))
(declare-fun temp477_92 () (_ BitVec 64))
(declare-fun temp477_93 () (_ BitVec 64))
(declare-fun temp477_94 () (_ BitVec 64))
(declare-fun temp477_95 () (_ BitVec 64))
(declare-fun temp477_96 () (_ BitVec 64))
(declare-fun var666637 () (_ BitVec 64))
(declare-fun temp477_97 () (_ BitVec 64))
(declare-fun temp477_99 () (_ BitVec 64))
(declare-fun temp477_98 () (_ BitVec 64))
(declare-fun temp477_100 () (_ BitVec 64))
(declare-fun var1514936 () (_ BitVec 64))
(declare-fun temp477_101 () (_ BitVec 64))
(assert (= temp477_1 #x0000000000000001))
(assert (= var68976 temp477_1))
(assert (= temp477_2 #x0000000000000000))
(assert (= temp477_3 temp477_2))
(assert (= temp477_4 (select ARGNAME_w_ih_NAMEEND_DIMSIZE temp477_3)))
(assert (= temp477_5 #x0000000000000001))
(assert (= temp477_6 temp477_5))
(assert (= temp477_7 (select ARGNAME_w_ih_NAMEEND_DIMSIZE temp477_6)))
(assert (= temp477_8 #x0000000000000002))
(assert (= temp477_9 temp477_8))
(assert (= temp477_10 (select ARGNAME_w_ih_NAMEEND_DIMSIZE temp477_9)))
(assert (= temp477_11 #x0000000000000003))
(assert (= temp477_12 temp477_11))
(assert (= temp477_13 (select ARGNAME_w_ih_NAMEEND_DIMSIZE temp477_12)))
(assert (= temp477_14 #x0000000000000004))
(assert (= temp477_15 temp477_14))
(assert (= temp477_16 (select ARGNAME_w_ih_NAMEEND_DIMSIZE temp477_15)))
(assert (= temp477_17 #x0000000000000005))
(assert (= temp477_18 temp477_17))
(assert (= temp477_19 (select ARGNAME_w_ih_NAMEEND_DIMSIZE temp477_18)))
(assert (= temp477_20 #x0000000000000000))
(assert (= temp477_21
   (ite (bvslt var68976 temp477_20)
        (bvadd ARGNAME_w_ih_NAMEEND_DIM var68976)
        var68976)))
(assert (= temp477_22 (select ARGNAME_w_ih_NAMEEND_DIMSIZE temp477_21)))
(assert (= var77378 temp477_22))
(assert (bvslt (ite (bvslt var68976 temp477_20)
            (bvadd ARGNAME_w_ih_NAMEEND_DIM var68976)
            var68976)
       ARGNAME_w_ih_NAMEEND_DIM))
(assert (= temp477_23 #x0000000000000000))
(assert (= temp477_24 temp477_23))
(assert (= temp477_25 (select ARGNAME_input_NAMEEND_DIMSIZE temp477_24)))
(assert (= temp477_26 #x0000000000000001))
(assert (= temp477_27 temp477_26))
(assert (= temp477_28 (select ARGNAME_input_NAMEEND_DIMSIZE temp477_27)))
(assert (= temp477_29 #x0000000000000002))
(assert (= temp477_30 temp477_29))
(assert (= temp477_31 (select ARGNAME_input_NAMEEND_DIMSIZE temp477_30)))
(assert (= temp477_32 #x0000000000000003))
(assert (= temp477_33 temp477_32))
(assert (= temp477_34 (select ARGNAME_input_NAMEEND_DIMSIZE temp477_33)))
(assert (= temp477_35 #x0000000000000004))
(assert (= temp477_36 temp477_35))
(assert (= temp477_37 (select ARGNAME_input_NAMEEND_DIMSIZE temp477_36)))
(assert (= temp477_38 #x0000000000000005))
(assert (= temp477_39 temp477_38))
(assert (= temp477_40 (select ARGNAME_input_NAMEEND_DIMSIZE temp477_39)))
(assert (= temp477_41 #x0000000000000001))
(assert (= temp477_42 temp477_41))
(assert (= temp477_43 (select ARGNAME_input_NAMEEND_DIMSIZE temp477_42)))
(assert (bvsgt ARGNAME_input_NAMEEND_DIM temp477_41))
(assert (bvsge temp477_41 (bvneg ARGNAME_input_NAMEEND_DIM)))
(assert (= temp477_44 var77378))
(assert (= var404256
   (ite (= temp477_43 temp477_44) #x0000000000000001 #x0000000000000000)))
(assert (= temp477_45 #x0000000000000001))
(assert (= var404256 temp477_45))
(assert (= temp477_46 #x0000000000000001))
(assert (= var68976 temp477_46))
(assert (= temp477_47 #x0000000000000000))
(assert (= temp477_48 temp477_47))
(assert (= temp477_49 (select ARGNAME_w_hh_NAMEEND_DIMSIZE temp477_48)))
(assert (= temp477_50 #x0000000000000001))
(assert (= temp477_51 temp477_50))
(assert (= temp477_52 (select ARGNAME_w_hh_NAMEEND_DIMSIZE temp477_51)))
(assert (= temp477_53 #x0000000000000002))
(assert (= temp477_54 temp477_53))
(assert (= temp477_55 (select ARGNAME_w_hh_NAMEEND_DIMSIZE temp477_54)))
(assert (= temp477_56 #x0000000000000003))
(assert (= temp477_57 temp477_56))
(assert (= temp477_58 (select ARGNAME_w_hh_NAMEEND_DIMSIZE temp477_57)))
(assert (= temp477_59 #x0000000000000004))
(assert (= temp477_60 temp477_59))
(assert (= temp477_61 (select ARGNAME_w_hh_NAMEEND_DIMSIZE temp477_60)))
(assert (= temp477_62 #x0000000000000005))
(assert (= temp477_63 temp477_62))
(assert (= temp477_64 (select ARGNAME_w_hh_NAMEEND_DIMSIZE temp477_63)))
(assert (= temp477_65 #x0000000000000000))
(assert (= temp477_66
   (ite (bvslt var68976 temp477_65)
        (bvadd ARGNAME_w_hh_NAMEEND_DIM var68976)
        var68976)))
(assert (= temp477_67 (select ARGNAME_w_hh_NAMEEND_DIMSIZE temp477_66)))
(assert (= var77383 temp477_67))
(assert (bvslt (ite (bvslt var68976 temp477_65)
            (bvadd ARGNAME_w_hh_NAMEEND_DIM var68976)
            var68976)
       ARGNAME_w_hh_NAMEEND_DIM))
(assert (= temp477_68 #x0000000000000000))
(assert (= temp477_69 temp477_68))
(assert (= temp477_70 (select ARGNAME_input_NAMEEND_DIMSIZE temp477_69)))
(assert (bvsgt ARGNAME_input_NAMEEND_DIM temp477_68))
(assert (bvsge temp477_68 (bvneg ARGNAME_input_NAMEEND_DIM)))
(assert (= temp477_71 #x0000000000000000))
(assert (= temp477_72 temp477_71))
(assert (= temp477_73 (select ARGNAME_hx_NAMEEND_DIMSIZE temp477_72)))
(assert (= temp477_74 #x0000000000000001))
(assert (= temp477_75 temp477_74))
(assert (= temp477_76 (select ARGNAME_hx_NAMEEND_DIMSIZE temp477_75)))
(assert (= temp477_77 #x0000000000000002))
(assert (= temp477_78 temp477_77))
(assert (= temp477_79 (select ARGNAME_hx_NAMEEND_DIMSIZE temp477_78)))
(assert (= temp477_80 #x0000000000000003))
(assert (= temp477_81 temp477_80))
(assert (= temp477_82 (select ARGNAME_hx_NAMEEND_DIMSIZE temp477_81)))
(assert (= temp477_83 #x0000000000000004))
(assert (= temp477_84 temp477_83))
(assert (= temp477_85 (select ARGNAME_hx_NAMEEND_DIMSIZE temp477_84)))
(assert (= temp477_86 #x0000000000000005))
(assert (= temp477_87 temp477_86))
(assert (= temp477_88 (select ARGNAME_hx_NAMEEND_DIMSIZE temp477_87)))
(assert (= temp477_89 #x0000000000000000))
(assert (= temp477_90 temp477_89))
(assert (= temp477_91 (select ARGNAME_hx_NAMEEND_DIMSIZE temp477_90)))
(assert (bvsgt ARGNAME_hx_NAMEEND_DIM temp477_89))
(assert (bvsge temp477_89 (bvneg ARGNAME_hx_NAMEEND_DIM)))
(assert (= var666568
   (ite (= temp477_70 temp477_91) #x0000000000000001 #x0000000000000000)))
(assert (= temp477_92 #x0000000000000001))
(assert (= var666568 temp477_92))
(assert (= temp477_93 #x0000000000000001))
(assert (= temp477_94 temp477_93))
(assert (= temp477_95 (select ARGNAME_hx_NAMEEND_DIMSIZE temp477_94)))
(assert (bvsgt ARGNAME_hx_NAMEEND_DIM temp477_93))
(assert (bvsge temp477_93 (bvneg ARGNAME_hx_NAMEEND_DIM)))
(assert (= temp477_96 var77383))
(assert (= var666637
   (ite (= temp477_95 temp477_96) #x0000000000000001 #x0000000000000000)))
(assert (= temp477_97 #x0000000000000001))
(assert (= var666637 temp477_97))
(assert (= temp477_99 #x0000000000000000))
(assert (= temp477_98 temp477_99))
(assert (= temp477_100 #x0000000000000000))
(assert (= var1514936 temp477_100))
(assert (= temp477_101 #x0000000000000000))
(assert (= var1514936 temp477_101))
(model-add temp477_1 () (_ BitVec 64) #x0000000000000001)
(model-add var68976 () (_ BitVec 64) #x0000000000000001)
(model-add temp477_2 () (_ BitVec 64) #x0000000000000000)
(model-add temp477_3 () (_ BitVec 64) #x0000000000000000)
(model-add temp477_4
           ()
           (_ BitVec 64)
           (select ARGNAME_w_ih_NAMEEND_DIMSIZE #x0000000000000000))
(model-add temp477_5 () (_ BitVec 64) #x0000000000000001)
(model-add temp477_6 () (_ BitVec 64) #x0000000000000001)
(model-add temp477_7
           ()
           (_ BitVec 64)
           (select ARGNAME_w_ih_NAMEEND_DIMSIZE #x0000000000000001))
(model-add temp477_8 () (_ BitVec 64) #x0000000000000002)
(model-add temp477_9 () (_ BitVec 64) #x0000000000000002)
(model-add temp477_10
           ()
           (_ BitVec 64)
           (select ARGNAME_w_ih_NAMEEND_DIMSIZE #x0000000000000002))
(model-add temp477_11 () (_ BitVec 64) #x0000000000000003)
(model-add temp477_12 () (_ BitVec 64) #x0000000000000003)
(model-add temp477_13
           ()
           (_ BitVec 64)
           (select ARGNAME_w_ih_NAMEEND_DIMSIZE #x0000000000000003))
(model-add temp477_14 () (_ BitVec 64) #x0000000000000004)
(model-add temp477_15 () (_ BitVec 64) #x0000000000000004)
(model-add temp477_16
           ()
           (_ BitVec 64)
           (select ARGNAME_w_ih_NAMEEND_DIMSIZE #x0000000000000004))
(model-add temp477_17 () (_ BitVec 64) #x0000000000000005)
(model-add temp477_18 () (_ BitVec 64) #x0000000000000005)
(model-add temp477_19
           ()
           (_ BitVec 64)
           (select ARGNAME_w_ih_NAMEEND_DIMSIZE #x0000000000000005))
(model-add temp477_20 () (_ BitVec 64) #x0000000000000000)
(model-add temp477_21 () (_ BitVec 64) #x0000000000000001)
(model-add temp477_22
           ()
           (_ BitVec 64)
           (select ARGNAME_w_ih_NAMEEND_DIMSIZE #x0000000000000001))
(model-add var77378
           ()
           (_ BitVec 64)
           (select ARGNAME_w_ih_NAMEEND_DIMSIZE #x0000000000000001))
(model-add temp477_23 () (_ BitVec 64) #x0000000000000000)
(model-add temp477_24 () (_ BitVec 64) #x0000000000000000)
(model-add temp477_25
           ()
           (_ BitVec 64)
           (select ARGNAME_input_NAMEEND_DIMSIZE #x0000000000000000))
(model-add temp477_26 () (_ BitVec 64) #x0000000000000001)
(model-add temp477_27 () (_ BitVec 64) #x0000000000000001)
(model-add temp477_28
           ()
           (_ BitVec 64)
           (select ARGNAME_input_NAMEEND_DIMSIZE #x0000000000000001))
(model-add temp477_29 () (_ BitVec 64) #x0000000000000002)
(model-add temp477_30 () (_ BitVec 64) #x0000000000000002)
(model-add temp477_31
           ()
           (_ BitVec 64)
           (select ARGNAME_input_NAMEEND_DIMSIZE #x0000000000000002))
(model-add temp477_32 () (_ BitVec 64) #x0000000000000003)
(model-add temp477_33 () (_ BitVec 64) #x0000000000000003)
(model-add temp477_34
           ()
           (_ BitVec 64)
           (select ARGNAME_input_NAMEEND_DIMSIZE #x0000000000000003))
(model-add temp477_35 () (_ BitVec 64) #x0000000000000004)
(model-add temp477_36 () (_ BitVec 64) #x0000000000000004)
(model-add temp477_37
           ()
           (_ BitVec 64)
           (select ARGNAME_input_NAMEEND_DIMSIZE #x0000000000000004))
(model-add temp477_38 () (_ BitVec 64) #x0000000000000005)
(model-add temp477_39 () (_ BitVec 64) #x0000000000000005)
(model-add temp477_40
           ()
           (_ BitVec 64)
           (select ARGNAME_input_NAMEEND_DIMSIZE #x0000000000000005))
(model-add temp477_41 () (_ BitVec 64) #x0000000000000001)
(model-add temp477_42 () (_ BitVec 64) #x0000000000000001)
(model-add temp477_43
           ()
           (_ BitVec 64)
           (select ARGNAME_input_NAMEEND_DIMSIZE #x0000000000000001))
(model-add temp477_44
           ()
           (_ BitVec 64)
           (select ARGNAME_w_ih_NAMEEND_DIMSIZE #x0000000000000001))
(model-add temp477_45 () (_ BitVec 64) #x0000000000000001)
(model-add var404256 () (_ BitVec 64) #x0000000000000001)
(model-del k!0)
(model-add ARGNAME_w_ih_NAMEEND_DIM
           ()
           (_ BitVec 64)
           (ite (or k!0 (= #x0000000000000001 #x7fffffffffffffff))
                #x0000000000000001
                (bvadd #x0000000000000001 #x0000000000000001)))
(model-del k!1)
(model-add ARGNAME_input_NAMEEND_DIMSIZE
           ()
           (Array (_ BitVec 64) (_ BitVec 64))
           ((as const (Array (_ BitVec 64) (_ BitVec 64))) k!1))
(model-del k!2)
(model-add ARGNAME_w_ih_NAMEEND_DIMSIZE
           ()
           (Array (_ BitVec 64) (_ BitVec 64))
           ((as const (Array (_ BitVec 64) (_ BitVec 64))) k!2))
(model-del k!3)
(model-add k!0 () Bool (not k!3))
(model-del k!4)
(model-add k!1 () (_ BitVec 64) (ite k!4 k!2 (bvnot k!2)))




